Normalized Data/p10_15_normalized_split0.vrp
NAME:p10_15_NORMALIZED_split
BEST_KNOWN: 0
COMMENT: 0
DIMENSION: 853
CAPACITY: 100
EDGE_WEIGHT_FORMAT: FUNCTION
EDGE_WEIGHT_TYPE: EXACT_2D
NODE_COORD_SECTION
1 0.00000 0.00000
2 -22 25
3 -22 25
4 -22 25
5 -22 25
6 -22 25
7 -44 17
8 -44 17
9 -44 17
10 -44 17
11 -44 17
12 42 40
13 42 40
14 42 40
15 42 40
16 42 40
17 42 40
18 -5 44
19 -5 44
20 -5 44
21 27 -3
22 27 -3
23 27 -3
24 27 -3
25 27 -3
26 -25 -46
27 -25 -46
28 15 -25
29 15 -25
30 15 -25
31 15 -25
32 15 -25
33 15 -25
34 12 -46
35 12 -46
36 12 -46
37 8 -20
38 8 -20
39 8 -20
40 16 -33
41 16 -33
42 16 -33
43 16 -33
44 40 28
45 40 28
46 40 28
47 40 28
48 -39 34
49 -39 34
50 -39 34
51 -39 34
52 -39 34
53 -3 39
54 -3 39
55 -3 39
56 -3 39
57 -3 39
58 -34 7
59 -34 7
60 -34 7
61 -34 7
62 9 -31
63 9 -31
64 -47 7
65 -47 7
66 -47 7
67 -44 -4
68 -44 -4
69 -44 -4
70 -44 -4
71 -38 36
72 -38 36
73 -16 19
74 -16 19
75 -16 19
76 -20 -13
77 -20 -13
78 -33 -28
79 -33 -28
80 -33 -28
81 3 33
82 3 33
83 3 33
84 3 33
85 3 33
86 42 -44
87 42 -44
88 42 -44
89 42 -44
90 42 -44
91 -26 11
92 -26 11
93 26 28
94 26 28
95 26 28
96 2 38
97 2 38
98 2 38
99 2 38
100 39 -19
101 39 -19
102 39 -19
103 39 -19
104 -40 34
105 -40 34
106 -40 34
107 -40 34
108 -46 30
109 -46 30
110 -46 30
111 -46 30
112 -46 30
113 25 16
114 25 16
115 25 16
116 25 16
117 25 16
118 -4 9
119 -4 9
120 -4 9
121 -4 9
122 -4 9
123 -4 9
124 -4 9
125 -29 -28
126 -29 -28
127 -29 -28
128 -29 -28
129 -29 -28
130 5 -6
131 5 -6
132 5 -6
133 5 -6
134 -41 -1
135 -41 -1
136 -41 -1
137 -12 16
138 -12 16
139 -12 16
140 -12 16
141 -16 -39
142 -16 -39
143 -16 -39
144 -16 -39
145 -16 -39
146 -16 -39
147 -16 -39
148 16 -4
149 16 -4
150 16 -4
151 -39 42
152 -39 42
153 -39 42
154 -39 42
155 -39 42
156 8 37
157 8 37
158 8 37
159 8 37
160 8 37
161 8 37
162 8 37
163 -3 34
164 -3 34
165 -3 34
166 -3 34
167 -3 34
168 -3 34
169 -45 -33
170 -45 -33
171 -45 -33
172 -45 -33
173 -45 -33
174 -4 19
175 -4 19
176 -4 19
177 -6 -48
178 -6 -48
179 -6 -48
180 -6 -48
181 -36 48
182 -36 48
183 -36 48
184 44 -15
185 44 -15
186 44 -15
187 44 -15
188 44 -15
189 45 4
190 45 4
191 45 4
192 45 4
193 45 4
194 -43 -30
195 -43 -30
196 2 -23
197 2 -23
198 2 -23
199 2 -23
200 2 -23
201 2 -23
202 25 37
203 20 21
204 20 21
205 20 21
206 15 -10
207 15 -10
208 15 -10
209 15 -10
210 -44 42
211 -44 42
212 -44 42
213 -44 42
214 -44 42
215 -44 42
216 -34 19
217 -34 19
218 -34 19
219 -34 19
220 -34 19
221 -34 19
222 -34 19
223 -47 -13
224 -47 -13
225 -47 -13
226 -47 -13
227 -47 -13
228 -47 -13
229 10 0
230 10 0
231 10 0
232 10 0
233 10 0
234 10 0
235 11 -33
236 11 -33
237 11 -33
238 11 -33
239 11 -33
240 11 -33
241 11 -33
242 -18 -2
243 -18 -2
244 -18 -2
245 -38 -33
246 18 37
247 18 37
248 18 37
249 18 37
250 18 37
251 -28 -20
252 -28 -20
253 -28 -20
254 -28 -20
255 -14 -21
256 -14 -21
257 -14 -21
258 16 24
259 16 24
260 16 24
261 34 -46
262 34 -46
263 -25 -3
264 -25 -3
265 -25 -3
266 -38 43
267 -38 43
268 -38 43
269 -38 43
270 -38 43
271 -38 43
272 -3 32
273 -3 32
274 -3 32
275 -3 32
276 -3 32
277 -32 -41
278 -32 -41
279 -32 -41
280 -32 -41
281 -32 -41
282 -32 -41
283 15 4
284 15 4
285 15 4
286 15 4
287 -25 25
288 -25 25
289 -25 25
290 -25 25
291 -25 25
292 -20 2
293 -20 2
294 -20 2
295 -20 2
296 -20 2
297 1 22
298 1 22
299 1 22
300 1 22
301 1 22
302 17 30
303 17 30
304 17 30
305 17 30
306 6 22
307 6 22
308 6 22
309 6 22
310 -39 6
311 -39 6
312 28 -33
313 28 -33
314 28 -33
315 28 -33
316 28 -33
317 27 -2
318 27 -2
319 27 -2
320 27 -2
321 27 -2
322 -26 6
323 -26 6
324 -26 6
325 -26 6
326 -11 -20
327 -11 -20
328 -11 -20
329 -11 -20
330 -11 -20
331 7 40
332 7 40
333 7 40
334 7 40
335 14 -30
336 14 -30
337 14 -30
338 14 -30
339 14 -30
340 14 -30
341 14 -30
342 10 14
343 10 14
344 10 14
345 10 14
346 10 14
347 -7 -43
348 -7 -43
349 -7 -43
350 -39 -17
351 -39 -17
352 -39 -17
353 -39 -17
354 -39 -17
355 -2 21
356 -2 21
357 -2 21
358 -2 21
359 -45 -39
360 -45 -39
361 -17 48
362 -17 48
363 -17 48
364 -17 48
365 -17 48
366 -41 47
367 -41 47
368 -41 47
369 -41 47
370 -41 47
371 39 -31
372 39 -31
373 39 -31
374 39 -31
375 39 -31
376 39 -12
377 39 -12
378 39 -12
379 39 -12
380 30 50
381 30 50
382 23 -30
383 23 -30
384 23 -30
385 23 -30
386 23 -30
387 -37 12
388 -37 12
389 -37 12
390 -37 12
391 -37 12
392 -37 12
393 20 11
394 20 11
395 20 11
396 20 11
397 -43 21
398 -43 21
399 -43 21
400 -4 -40
401 -4 -40
402 -4 -40
403 -4 -40
404 -4 -40
405 -4 -40
406 -25 -33
407 -25 -33
408 -25 -33
409 32 -20
410 32 -20
411 32 -20
412 32 -20
413 32 -20
414 -50 31
415 -50 31
416 -50 31
417 -50 31
418 -50 31
419 -50 31
420 1 24
421 1 24
422 1 24
423 1 24
424 1 24
425 9 27
426 9 27
427 9 27
428 9 27
429 -11 12
430 -11 12
431 38 25
432 38 25
433 38 25
434 38 25
435 38 25
436 38 25
437 12 -48
438 12 -48
439 12 -48
440 12 -48
441 12 -48
442 12 -48
443 42 22
444 42 22
445 42 22
446 -3 -50
447 -3 -50
448 -3 -50
449 -3 -50
450 11 18
451 11 18
452 11 18
453 11 18
454 11 18
455 -33 -2
456 -33 -2
457 -1 -30
458 -1 -30
459 -1 -30
460 -1 -30
461 -22 -42
462 -22 -42
463 -22 -42
464 -22 -42
465 -22 -42
466 -22 -42
467 -8 45
468 -8 45
469 -8 45
470 -8 45
471 -8 45
472 -8 45
473 20 32
474 20 32
475 20 32
476 20 32
477 -40 8
478 -40 8
479 -40 8
480 -40 8
481 -40 8
482 0 39
483 0 39
484 0 39
485 0 39
486 0 39
487 40 -41
488 40 -41
489 40 -41
490 40 -41
491 40 -41
492 44 -27
493 44 -27
494 44 -27
495 44 -27
496 44 -27
497 44 -27
498 3 -27
499 3 -27
500 3 -27
501 -14 6
502 22 -39
503 22 -39
504 22 -39
505 22 -39
506 22 -39
507 22 -39
508 30 1
509 30 1
510 30 1
511 30 1
512 -49 47
513 -49 47
514 -49 47
515 -49 47
516 27 12
517 27 12
518 27 12
519 27 12
520 27 12
521 20 -15
522 20 -15
523 20 -15
524 20 -15
525 20 -15
526 44 50
527 44 50
528 44 50
529 44 50
530 44 50
531 44 50
532 44 50
533 39 -45
534 39 -45
535 39 -45
536 39 -45
537 39 -45
538 -46 -39
539 -46 -39
540 -46 -39
541 -46 -39
542 -46 -39
543 -46 -39
544 -47 -8
545 -47 -8
546 -47 -8
547 -47 -8
548 -47 -8
549 -47 -8
550 -41 -41
551 -41 -41
552 -41 -41
553 -41 -41
554 -41 -41
555 39 8
556 39 8
557 39 8
558 6 17
559 6 17
560 -37 -9
561 -37 -9
562 -37 -9
563 -37 -9
564 -37 -9
565 -37 -9
566 -6 48
567 -6 48
568 -6 48
569 -6 48
570 -6 48
571 -6 48
572 -6 48
573 30 -36
574 30 -36
575 30 -36
576 30 -36
577 30 -36
578 30 -36
579 17 -29
580 17 -29
581 20 28
582 20 28
583 -2 9
584 -2 9
585 -2 9
586 49 16
587 49 16
588 49 16
589 49 16
590 49 16
591 -14 -13
592 -14 -13
593 -14 -13
594 -14 -13
595 -14 -13
596 -14 -13
597 -22 43
598 -22 43
599 9 -12
600 9 -12
601 9 -12
602 -3 44
603 -3 44
604 -3 44
605 -1 46
606 -1 46
607 -1 46
608 -34 3
609 -34 3
610 -34 3
611 -34 3
612 -34 3
613 13 -27
614 13 -27
615 13 -27
616 13 -27
617 13 -27
618 14 34
619 14 34
620 14 34
621 14 34
622 14 34
623 10 19
624 10 19
625 10 19
626 10 19
627 10 19
628 10 19
629 -26 -33
630 -26 -33
631 -26 -33
632 -26 -33
633 -26 -33
634 -26 -33
635 -26 -33
636 -25 2
637 -25 2
638 -25 2
639 -25 2
640 -25 2
641 36 -32
642 36 -32
643 36 -32
644 36 -32
645 -9 10
646 -9 10
647 -9 10
648 -9 10
649 38 49
650 38 49
651 38 49
652 38 49
653 38 49
654 -26 24
655 -26 24
656 36 -32
657 36 -32
658 36 -32
659 36 -32
660 36 -32
661 40 32
662 40 32
663 40 32
664 40 32
665 40 32
666 -38 -14
667 -38 -14
668 -38 -14
669 -48 32
670 -48 32
671 33 40
672 33 40
673 33 40
674 33 40
675 33 40
676 -20 41
677 -20 41
678 -20 41
679 -20 41
680 -2 37
681 -2 37
682 -2 37
683 -2 37
684 -2 37
685 30 -39
686 30 -39
687 -33 49
688 14 17
689 14 17
690 14 17
691 -4 0
692 -4 0
693 -4 0
694 -5 -16
695 -5 -16
696 -5 -16
697 -5 -16
698 -5 -16
699 -5 -16
700 14 -26
701 14 -26
702 14 -26
703 14 -26
704 14 -26
705 14 -26
706 14 -26
707 16 -43
708 16 -43
709 16 -43
710 16 -43
711 16 -43
712 -10 19
713 -10 19
714 -10 19
715 -10 19
716 15 -50
717 15 -50
718 15 -50
719 39 29
720 39 29
721 39 29
722 -4 -47
723 -4 -47
724 -4 -47
725 -4 -47
726 -4 -47
727 -4 -47
728 -4 -47
729 -37 21
730 -37 21
731 -37 21
732 -37 21
733 -37 21
734 -37 21
735 16 38
736 16 38
737 16 38
738 16 38
739 16 38
740 16 38
741 -50 28
742 -50 28
743 -50 28
744 41 10
745 41 10
746 41 10
747 41 10
748 -29 29
749 -29 29
750 -29 29
751 -29 29
752 -37 25
753 -12 -18
754 -12 -18
755 -13 25
756 -13 25
757 -13 25
758 -13 25
759 -13 25
760 -13 25
761 -13 25
762 49 -8
763 49 -8
764 49 -8
765 49 -8
766 49 -8
767 49 -8
768 49 -8
769 -18 -20
770 -18 -20
771 -18 -20
772 8 19
773 8 19
774 -11 -22
775 -11 -22
776 -11 -22
777 -45 18
778 -45 18
779 -45 18
780 -45 18
781 -45 18
782 37 -8
783 37 -8
784 37 -8
785 -26 -42
786 -26 -42
787 -26 -42
788 -26 -42
789 9 37
790 9 37
791 9 37
792 9 37
793 9 37
794 -34 35
795 -34 35
796 -7 49
797 -7 49
798 -7 49
799 -7 49
800 -7 49
801 40 -4
802 40 -4
803 40 -4
804 40 -4
805 -17 -24
806 -17 -24
807 -17 -24
808 -17 -24
809 -17 -24
810 38 48
811 38 48
812 38 48
813 38 48
814 38 48
815 37 -26
816 37 -26
817 37 -26
818 -10 18
819 -10 18
820 -10 18
821 -10 18
822 -10 18
823 -10 18
824 33 6
825 33 6
826 33 6
827 33 6
828 -23 5
829 -23 5
830 -23 5
831 -25 13
832 -25 13
833 -25 13
834 -25 13
835 -25 13
836 -25 13
837 1 42
838 1 42
839 1 42
840 -17 -18
841 -17 -18
842 -17 -18
843 -17 -18
844 -17 -18
845 15 41
846 15 41
847 15 41
848 15 41
849 15 41
850 23 -43
851 23 -43
852 23 -43
853 23 -43
DEMAND_SECTION
1 0
2 20
3 1
4 1
5 1
6 1
7 10
8 5
9 1
10 1
11 1
12 20
13 20
14 1
15 1
16 1
17 1
18 20
19 20
20 5
21 20
22 5
23 1
24 1
25 1
26 10
27 5
28 10
29 5
30 1
31 1
32 1
33 1
34 20
35 10
36 5
37 20
38 20
39 5
40 20
41 20
42 5
43 1
44 20
45 5
46 1
47 1
48 20
49 1
50 1
51 1
52 1
53 20
54 20
55 5
56 1
57 1
58 10
59 1
60 1
61 1
62 20
63 20
64 20
65 20
66 1
67 20
68 5
69 1
70 1
71 10
72 5
73 20
74 20
75 5
76 20
77 1
78 20
79 20
80 1
81 10
82 5
83 1
84 1
85 1
86 10
87 1
88 1
89 1
90 1
91 20
92 20
93 20
94 10
95 5
96 20
97 10
98 5
99 1
100 20
101 10
102 1
103 1
104 20
105 20
106 1
107 1
108 20
109 20
110 5
111 1
112 1
113 10
114 5
115 1
116 1
117 1
118 20
119 20
120 5
121 1
122 1
123 1
124 1
125 20
126 1
127 1
128 1
129 1
130 10
131 5
132 1
133 1
134 20
135 5
136 1
137 20
138 20
139 1
140 1
141 20
142 20
143 5
144 1
145 1
146 1
147 1
148 20
149 1
150 1
151 20
152 10
153 5
154 1
155 1
156 20
157 20
158 5
159 1
160 1
161 1
162 1
163 20
164 20
165 5
166 1
167 1
168 1
169 20
170 5
171 1
172 1
173 1
174 20
175 5
176 1
177 20
178 10
179 5
180 1
181 20
182 20
183 1
184 20
185 10
186 5
187 1
188 1
189 20
190 20
191 5
192 1
193 1
194 20
195 10
196 20
197 20
198 5
199 1
200 1
201 1
202 20
203 20
204 20
205 5
206 10
207 5
208 1
209 1
210 20
211 20
212 5
213 1
214 1
215 1
216 20
217 20
218 5
219 1
220 1
221 1
222 1
223 20
224 10
225 1
226 1
227 1
228 1
229 10
230 5
231 1
232 1
233 1
234 1
235 20
236 20
237 5
238 1
239 1
240 1
241 1
242 10
243 5
244 1
245 20
246 20
247 20
248 5
249 1
250 1
251 20
252 20
253 5
254 1
255 20
256 20
257 5
258 20
259 5
260 1
261 20
262 20
263 20
264 5
265 1
266 20
267 20
268 1
269 1
270 1
271 1
272 20
273 1
274 1
275 1
276 1
277 20
278 5
279 1
280 1
281 1
282 1
283 20
284 1
285 1
286 1
287 10
288 1
289 1
290 1
291 1
292 20
293 20
294 5
295 1
296 1
297 20
298 20
299 5
300 1
301 1
302 20
303 5
304 1
305 1
306 20
307 10
308 5
309 1
310 20
311 5
312 20
313 20
314 1
315 1
316 1
317 20
318 5
319 1
320 1
321 1
322 20
323 1
324 1
325 1
326 20
327 20
328 1
329 1
330 1
331 20
332 10
333 1
334 1
335 20
336 20
337 5
338 1
339 1
340 1
341 1
342 10
343 5
344 1
345 1
346 1
347 20
348 20
349 1
350 20
351 5
352 1
353 1
354 1
355 10
356 1
357 1
358 1
359 20
360 5
361 10
362 5
363 1
364 1
365 1
366 20
367 20
368 1
369 1
370 1
371 20
372 10
373 1
374 1
375 1
376 20
377 10
378 1
379 1
380 20
381 1
382 20
383 20
384 1
385 1
386 1
387 20
388 20
389 1
390 1
391 1
392 1
393 20
394 1
395 1
396 1
397 20
398 20
399 5
400 20
401 20
402 5
403 1
404 1
405 1
406 20
407 5
408 1
409 20
410 10
411 5
412 1
413 1
414 20
415 10
416 5
417 1
418 1
419 1
420 20
421 1
422 1
423 1
424 1
425 20
426 1
427 1
428 1
429 10
430 5
431 10
432 5
433 1
434 1
435 1
436 1
437 20
438 10
439 1
440 1
441 1
442 1
443 20
444 20
445 5
446 20
447 1
448 1
449 1
450 10
451 1
452 1
453 1
454 1
455 20
456 5
457 10
458 5
459 1
460 1
461 20
462 20
463 1
464 1
465 1
466 1
467 20
468 10
469 1
470 1
471 1
472 1
473 20
474 20
475 5
476 1
477 20
478 10
479 1
480 1
481 1
482 20
483 20
484 5
485 1
486 1
487 20
488 20
489 1
490 1
491 1
492 20
493 20
494 1
495 1
496 1
497 1
498 20
499 20
500 5
501 20
502 20
503 10
504 1
505 1
506 1
507 1
508 10
509 1
510 1
511 1
512 20
513 20
514 5
515 1
516 20
517 10
518 5
519 1
520 1
521 20
522 20
523 1
524 1
525 1
526 20
527 20
528 5
529 1
530 1
531 1
532 1
533 20
534 10
535 1
536 1
537 1
538 20
539 20
540 1
541 1
542 1
543 1
544 20
545 5
546 1
547 1
548 1
549 1
550 10
551 5
552 1
553 1
554 1
555 20
556 20
557 1
558 20
559 10
560 20
561 10
562 5
563 1
564 1
565 1
566 20
567 20
568 5
569 1
570 1
571 1
572 1
573 20
574 10
575 1
576 1
577 1
578 1
579 10
580 5
581 20
582 20
583 10
584 1
585 1
586 20
587 10
588 1
589 1
590 1
591 20
592 5
593 1
594 1
595 1
596 1
597 20
598 1
599 20
600 20
601 5
602 20
603 20
604 1
605 20
606 1
607 1
608 10
609 1
610 1
611 1
612 1
613 10
614 5
615 1
616 1
617 1
618 20
619 20
620 5
621 1
622 1
623 10
624 5
625 1
626 1
627 1
628 1
629 20
630 10
631 5
632 1
633 1
634 1
635 1
636 20
637 20
638 5
639 1
640 1
641 10
642 5
643 1
644 1
645 20
646 10
647 5
648 1
649 10
650 5
651 1
652 1
653 1
654 20
655 5
656 20
657 10
658 1
659 1
660 1
661 20
662 1
663 1
664 1
665 1
666 20
667 20
668 5
669 20
670 10
671 20
672 5
673 1
674 1
675 1
676 20
677 10
678 5
679 1
680 10
681 5
682 1
683 1
684 1
685 20
686 1
687 20
688 20
689 10
690 5
691 20
692 10
693 5
694 10
695 5
696 1
697 1
698 1
699 1
700 20
701 10
702 5
703 1
704 1
705 1
706 1
707 20
708 10
709 5
710 1
711 1
712 20
713 10
714 1
715 1
716 10
717 1
718 1
719 20
720 10
721 1
722 20
723 20
724 5
725 1
726 1
727 1
728 1
729 10
730 5
731 1
732 1
733 1
734 1
735 20
736 20
737 1
738 1
739 1
740 1
741 20
742 10
743 5
744 20
745 20
746 5
747 1
748 20
749 5
750 1
751 1
752 20
753 20
754 5
755 20
756 10
757 5
758 1
759 1
760 1
761 1
762 20
763 20
764 5
765 1
766 1
767 1
768 1
769 10
770 1
771 1
772 20
773 10
774 20
775 20
776 5
777 20
778 5
779 1
780 1
781 1
782 10
783 5
784 1
785 10
786 1
787 1
788 1
789 20
790 20
791 1
792 1
793 1
794 20
795 10
796 10
797 5
798 1
799 1
800 1
801 20
802 10
803 5
804 1
805 20
806 1
807 1
808 1
809 1
810 20
811 20
812 5
813 1
814 1
815 20
816 5
817 1
818 20
819 10
820 1
821 1
822 1
823 1
824 20
825 20
826 1
827 1
828 10
829 5
830 1
831 20
832 10
833 5
834 1
835 1
836 1
837 10
838 5
839 1
840 20
841 5
842 1
843 1
844 1
845 10
846 1
847 1
848 1
849 1
850 20
851 1
852 1
853 1
DEPOT_SECTION
1
-1
EOF