Normalized Data/p10_15_normalized_split0.sol
852 -1 182 181 180 686 360 364 361 363 362 -2 3 5 4 793 71 103 106 105 104 51 50 49 48 47 654 -13 16 15 12 14 11 528 525 531 527 526 530 529 674 672 673 -33 34 35 715 717 716 440 437 441 436 439 438 459 457 456 458 -37 36 38 598 599 600 129 -42 41 504 502 506 501 505 503 852 849 850 851 708 706 707 709 710 -54 602 603 601 18 467 466 468 470 471 469 -60 59 58 57 388 389 390 386 387 216 220 215 221 218 833 -62 61 240 235 236 238 237 239 234 340 337 339 336 -70 514 513 512 511 368 367 369 365 366 -74 270 269 266 268 267 265 150 152 151 154 153 794 -76 75 252 253 251 250 839 843 841 840 842 -79 77 78 276 278 280 279 277 281 25 26 785 787 786 784 -80 333 331 332 330 604 606 605 837 836 838 482 -92 93 94 670 671 201 257 -99 101 184 185 187 186 183 376 378 375 377 782 783 -102 100 495 494 491 496 492 493 815 816 411 412 408 410 409 522 523 -107 669 668 210 209 212 214 211 213 -108 110 109 111 413 416 414 418 415 417 741 740 742 -122 121 123 120 117 118 119 645 644 647 646 -124 127 244 168 170 171 172 169 194 193 -131 132 130 655 642 658 643 641 659 657 640 370 373 371 374 372 814 -138 137 136 139 72 73 428 429 -140 145 144 141 142 146 143 465 463 462 464 460 461 775 697 695 -149 147 148 317 316 319 24 20 23 22 21 205 206 207 208 -159 156 161 155 160 158 157 788 790 789 791 792 426 425 307 308 -166 164 162 167 682 483 481 485 484 98 95 97 96 81 82 84 83 421 -175 796 799 798 797 795 568 566 570 567 565 571 569 19 17 683 681 275 272 274 300 299 -192 189 190 188 191 744 746 745 743 -196 200 199 198 195 197 498 497 499 -202 203 204 688 687 689 341 342 345 344 343 -217 219 396 398 397 777 776 779 780 778 9 10 7 6 8 391 -233 230 232 228 231 229 285 283 282 284 515 518 519 516 517 392 -242 243 241 637 638 636 639 635 829 827 828 500 -246 249 247 248 245 738 739 735 736 734 737 619 621 620 -258 259 474 473 472 475 580 581 -263 264 262 562 665 666 667 349 351 350 353 352 -294 293 292 295 291 690 692 691 -303 301 302 304 617 618 424 427 306 -305 422 423 419 420 298 297 296 355 354 356 -310 309 64 63 65 476 478 479 480 477 -312 313 311 314 315 384 381 382 578 579 -320 318 802 800 803 801 767 761 765 764 763 766 762 781 -321 323 324 322 91 90 832 835 834 830 831 -328 326 325 327 329 774 773 696 694 698 693 -335 338 334 39 40 615 616 612 614 613 -346 347 348 176 177 179 178 447 448 445 446 -357 273 271 165 163 55 52 53 56 679 680 -383 385 685 684 260 261 577 575 576 574 572 573 -394 393 395 115 114 112 113 116 432 442 443 444 585 586 587 589 588 -402 404 399 403 401 400 727 725 723 726 721 722 724 -431 435 430 433 434 44 43 45 46 663 664 662 661 660 720 719 718 -449 451 450 452 453 623 624 626 622 625 627 772 771 558 557 -454 455 66 67 68 69 134 133 135 607 611 608 609 610 -509 510 508 507 556 554 555 824 823 825 826 -524 521 520 30 28 31 32 27 29 702 703 705 704 700 701 699 -535 533 532 536 534 85 87 89 86 88 487 489 486 490 488 656 -539 542 540 541 537 538 358 359 552 550 551 553 549 126 128 125 769 -548 543 547 546 545 544 224 225 226 222 227 223 564 559 560 561 563 -584 583 582 173 174 713 712 711 714 817 819 818 -592 591 593 595 594 590 254 256 255 753 752 -653 288 287 289 290 286 748 749 750 747 751 730 728 729 733 732 731 -678 677 676 675 596 597 754 756 757 760 755 758 759 821 820 822 -768 770 632 631 629 630 628 633 634 405 406 407 807 804 808 805 806 -813 812 809 810 811 651 648 652 650 649 380 379 848 844 845 847 846 0 





OBJ=
5757.726
BEST_KNOWN=
0.000